# Solution for model GasLib-40
# Objective value = 5.2766308452267353e+01
loadshed[innode_1] 0
loadshed[innode_2] 0
loadshed[innode_3] 0
loadshed[innode_4] 0
loadshed[innode_5] 0
loadshed[innode_6] 0
loadshed[innode_7] 0
loadshed[innode_8] 0
loadshed[source_1] -1.2010420475163652e-01
loadshed[source_2] 2.1522872580321384e-01
loadshed[source_3] 2.3864874567917771e-01
loadshed[sink_1] 3.6355255737338876e-01
loadshed[sink_2] 0
loadshed[sink_3] 0
loadshed[sink_4] 0
loadshed[sink_5] 0
loadshed[sink_6] 0
loadshed[sink_7] 0
loadshed[sink_8] 0
loadshed[sink_9] 0
loadshed[sink_10] 0
loadshed[sink_11] 0
loadshed[sink_12] 1
loadshed[sink_13] 0
loadshed[sink_14] 0
loadshed[sink_15] 0
loadshed[sink_16] 0
loadshed[sink_17] 0
loadshed[sink_18] 0
loadshed[sink_19] 0
loadshed[sink_20] 0
loadshed[sink_21] 1
loadshed[sink_22] 0
loadshed[sink_23] 0
loadshed[sink_24] 8.6292235435760845e-01
loadshed[sink_25] 0
loadshed[sink_26] 0
loadshed[sink_27] 0
loadshed[sink_28] 0
loadshed[sink_29] 0
flow[source_1,sink_3] 1.7707758486924308e+02
flow[innode_1,sink_16] 1.6354166666666970e+01
flow[innode_6,sink_13] -5.8830646153712891e+00
flow[sink_13,sink_14] -2.2237231282037957e+01
flow[sink_14,sink_10] -3.8591397948704625e+01
flow[sink_25,sink_26] 1.1249779401715939e+02
flow[sink_26,sink_9] 0
flow[sink_9,sink_18] -1.6354166666669244e+01
flow[sink_26,sink_4] 9.6143627350492721e+01
flow[sink_4,sink_20] -1.4500307302408455e+01
flow[sink_18,sink_6] -3.2708333333335915e+01
flow[sink_25,innode_8] -1.4436925153590673e+02
flow[sink_6,sink_7] -7.5825234217958581e+01
flow[sink_6,sink_22] 2.6762734217956041e+01
flow[sink_7,sink_24] 2.2417906631099478e+00
flow[sink_22,sink_1] 1.0408567551289373e+01
flow[sink_24,sink_21] 0
flow[sink_21,sink_12] 0
flow[sink_7,sink_5] -9.4421191547735219e+01
flow[sink_5,sink_17] -1.1077535821440189e+02
flow[sink_17,sink_4] -9.4289767986234509e+01
flow[sink_17,sink_8] -3.2839756894834039e+01
flow[sink_3,sink_23] 16.3541666666697
flow[sink_8,sink_20] -4.9193923561500711e+01
flow[sink_25,sink_20] 8.0048397530575869e+01
flow[sink_25,sink_15] -5.8648042063122645e+01
flow[sink_15,sink_29] 0
flow[sink_29,sink_28] 1.6354166666667879e+01
flow[sink_29,sink_2] 9.1356375396455988e+01
flow[sink_2,sink_15] 7.5002208729789317e+01
flow[sink_29,innode_7] -1.2406470872979054e+02
flow[innode_4,sink_19] 4.6705896799508487e+01
flow[sink_19,innode_3] 4.2774732212065906e+01
flow[innode_4,innode_5] 7.3656334482529843e+01
flow[sink_27,innode_5] -7.3656334482529843e+01
flow[sink_27,sink_19] 5.7302167815863172e+01
flow[sink_10,sink_11] 3.2708333333333641e+01
flow[sink_10,innode_2] -4.4879165736639024e+01
flow[sink_10,innode_3] -4.2774732212065906e+01
flow[innode_6,sink_25] 5.8830646153712891e+00
flow[sink_11,innode_1] 1.6354166666666970e+01
flow[sink_19,innode_2] 4.4879165736639024e+01
flow[source_3,innode_4] 1.2036223128203832e+02
flow[source_2,innode_7] 1.2406470872979054e+02
flow[sink_3,innode_8] 1.4436925153590673e+02
pressure[innode_1] 7.6597324539538491e+01
pressure[innode_2] 7.9121075113348581e+01
pressure[innode_3] 7.9026355312577920e+01
pressure[innode_4] 81.01325
pressure[innode_5] 8.0962585289232365e+01
pressure[innode_6] 7.4851479140479768e+01
pressure[innode_7] 81.01325
pressure[innode_8] 8.0421347279871441e+01
pressure[source_1] 81.01325
pressure[source_2] 81.01325
pressure[source_3] 81.01325
pressure[sink_1] 1.0132500000000002e+00
pressure[sink_2] 7.5380844973700860e+01
pressure[sink_3] 8.0421347279871441e+01
pressure[sink_4] 5.4704375961984432e+01
pressure[sink_5] 4.2848968460764127e+01
pressure[sink_6] 2.5390335450601742e+00
pressure[sink_7] 3.5799332708696063e+00
pressure[sink_8] 5.2340061283682367e+01
pressure[sink_9] 1.0738811657539364e+00
pressure[sink_10] 7.6749025847142036e+01
pressure[sink_11] 7.6597324539538491e+01
pressure[sink_12] 1.01325
pressure[sink_13] 7.4883911492552883e+01
pressure[sink_14] 7.4923706912125368e+01
pressure[sink_15] 7.5135979292418654e+01
pressure[sink_16] 7.5575674704720811e+01
pressure[sink_17] 5.1100931940449804e+01
pressure[sink_18] 1.6656236595536908e+00
pressure[sink_19] 7.9121075113348581e+01
pressure[sink_20] 5.5768185928438321e+01
pressure[sink_21] 1.01325
pressure[sink_22] 1.6902831501969375e+00
pressure[sink_23] 8.0256629268211654e+01
pressure[sink_24] 1.01325
pressure[sink_25] 7.4851479140479768e+01
pressure[sink_26] 66.9283255741419
pressure[sink_27] 8.0351373815299226e+01
pressure[sink_28] 7.7399722790798975e+01
pressure[sink_29] 7.7695005064416151e+01
interdiction[source_1,sink_3] 0
interdiction[innode_1,sink_16] 0
interdiction[innode_6,sink_13] 0
interdiction[sink_13,sink_14] 0
interdiction[sink_14,sink_10] 0
interdiction[sink_25,sink_26] 0
interdiction[sink_26,sink_9] 1
interdiction[sink_9,sink_18] 0
interdiction[sink_26,sink_4] 0
interdiction[sink_4,sink_20] 0
interdiction[sink_18,sink_6] 0
interdiction[sink_25,innode_8] 0
interdiction[sink_6,sink_7] 0
interdiction[sink_6,sink_22] 0
interdiction[sink_7,sink_24] 0
interdiction[sink_22,sink_1] 0
interdiction[sink_24,sink_21] 0
interdiction[sink_21,sink_12] 0
interdiction[sink_7,sink_5] 0
interdiction[sink_5,sink_17] 0
interdiction[sink_17,sink_4] 0
interdiction[sink_17,sink_8] 0
interdiction[sink_3,sink_23] 0
interdiction[sink_8,sink_20] 0
interdiction[sink_25,sink_20] 0
interdiction[sink_25,sink_15] 0
interdiction[sink_15,sink_29] 1
interdiction[sink_29,sink_28] 0
interdiction[sink_29,sink_2] 0
interdiction[sink_2,sink_15] 0
interdiction[sink_29,innode_7] 0
interdiction[innode_4,sink_19] 0
interdiction[sink_19,innode_3] 0
interdiction[innode_4,innode_5] 0
interdiction[sink_27,innode_5] 0
interdiction[sink_27,sink_19] 0
interdiction[sink_10,sink_11] 0
interdiction[sink_10,innode_2] 0
interdiction[sink_10,innode_3] 0
interdiction[innode_6,sink_25] 0
interdiction[sink_11,innode_1] 0
interdiction[sink_19,innode_2] 0
interdiction[source_3,innode_4] 0
interdiction[source_2,innode_7] 0
interdiction[sink_3,innode_8] 0
WCcheckFlow[source_1,sink_3] 39
WCcheckFlow[innode_1,sink_16] 1
WCcheckFlow[innode_6,sink_13] 13
WCcheckFlow[sink_13,sink_14] 12
WCcheckFlow[sink_14,sink_10] 11
WCcheckFlow[sink_25,sink_26] 15
WCcheckFlow[sink_26,sink_9] 0
WCcheckFlow[sink_9,sink_18] -1
WCcheckFlow[sink_26,sink_4] 14
WCcheckFlow[sink_4,sink_20] 1
WCcheckFlow[sink_18,sink_6] -2
WCcheckFlow[sink_25,innode_8] -36
WCcheckFlow[sink_6,sink_7] -5
WCcheckFlow[sink_6,sink_22] 2
WCcheckFlow[sink_7,sink_24] 3
WCcheckFlow[sink_22,sink_1] 1
WCcheckFlow[sink_24,sink_21] 2
WCcheckFlow[sink_21,sink_12] 1
WCcheckFlow[sink_7,sink_5] -9
WCcheckFlow[sink_5,sink_17] -10
WCcheckFlow[sink_17,sink_4] -12
WCcheckFlow[sink_17,sink_8] 1
WCcheckFlow[sink_3,sink_23] 1
WCcheckFlow[sink_8,sink_20] 0
WCcheckFlow[sink_25,sink_20] 0
WCcheckFlow[sink_25,sink_15] 6
WCcheckFlow[sink_15,sink_29] 0
WCcheckFlow[sink_29,sink_28] 1
WCcheckFlow[sink_29,sink_2] -4
WCcheckFlow[sink_2,sink_15] -5
WCcheckFlow[sink_29,innode_7] 2
WCcheckFlow[innode_4,sink_19] -4
WCcheckFlow[sink_19,innode_3] -5
WCcheckFlow[innode_4,innode_5] 2
WCcheckFlow[sink_27,innode_5] -1
WCcheckFlow[sink_27,sink_19] 0
WCcheckFlow[sink_10,sink_11] 3
WCcheckFlow[sink_10,innode_2] 1
WCcheckFlow[sink_10,innode_3] 6
WCcheckFlow[innode_6,sink_25] -14
WCcheckFlow[sink_11,innode_1] 2
WCcheckFlow[sink_19,innode_2] 0
WCcheckFlow[source_3,innode_4] -1
WCcheckFlow[source_2,innode_7] -1
WCcheckFlow[sink_3,innode_8] 37
